4 
5  27 42 57 
6  12 27 42 57 
7  12 27 42 57 
8  12 27 42 57 
9  12 27 42 56 
10  11 26 41 56 
11  11 26 41 56 
12  11 26 41 56 
13  11 27 42 57 
14  12 27 42 57 
15  14 29 44 59 
16  14 29 44 59 
17  14 29 44 59 
18  14 29 44 59 
19  13 27 42 57 
20  12 27 42 57 
21  12 27 42 57 
22  12 29 44 59 
23  16 
0 
